% File represents an instance of a Composite Structure problem to be solved by a CP framework
% Created on 2025-03-26 10:41:48.612
T = 50;
n = 36;
m = 60;
edges = [(1, 2),
(7, 8),
(13, 14),
(19, 20),
(25, 26),
(32, 31),
(2, 3),
(8, 9),
(14, 15),
(20, 21),
(27, 26),
(33, 32),
(3, 4),
(9, 10),
(15, 16),
(22, 21),
(27, 28),
(33, 34),
(5, 4),
(11, 10),
(17, 16),
(23, 22),
(29, 28),
(34, 35),
(6, 5),
(12, 11),
(18, 17),
(24, 23),
(30, 29),
(35, 36),
(1, 7),
(7, 13),
(13, 19),
(19, 25),
(31, 25),
(2, 8),
(8, 14),
(14, 20),
(20, 26),
(32, 26),
(3, 9),
(9, 15),
(15, 21),
(27, 21),
(33, 27),
(4, 10),
(10, 16),
(22, 16),
(22, 28),
(34, 28),
(5, 11),
(11, 17),
(23, 17),
(23, 29),
(35, 29),
(6, 12),
(12, 18),
(24, 18),
(24, 30),
(30, 36)];
counts = [|14, 8, 14, 14,
|14, 4, 14, 14,
|12, 2, 12, 14,
|12, 2, 12, 8,
|14, 2, 14, 10,
|14, 2, 14, 12,
|12, 8, 12, 12,
|12, 4, 12, 12,
|12, 2, 12, 12,
|12, 2, 12, 6,
|14, 2, 14, 8,
|14, 2, 14, 10,
|12, 8, 12, 10,
|12, 4, 12, 10,
|12, 2, 12, 10,
|12, 2, 12, 4,
|14, 2, 14, 4,
|14, 2, 14, 6,
|12, 8, 12, 6,
|12, 4, 12, 6,
|12, 2, 12, 4,
|12, 2, 12, 6,
|14, 2, 14, 8,
|14, 2, 14, 12,
|12, 6, 12, 2,
|12, 4, 12, 2,
|12, 4, 12, 6,
|12, 2, 12, 4,
|12, 2, 12, 6,
|14, 2, 14, 6,
|12, 8, 12, 2,
|12, 8, 12, 4,
|12, 8, 12, 6,
|12, 6, 12, 6,
|12, 4, 12, 6,
|12, 2, 12, 4|];
